Problem:    
Rows:       256
Columns:    89 (72 integer, 72 binary)
Non-zeros:  800
Status:     INTEGER OPTIMAL
Objective:  value = 145.53395 (MINimum)

   No.   Row name        Activity     Lower bound   Upper bound
------ ------------    ------------- ------------- -------------
     1 r.5                   145.534             0               
     2 r.6                  -963.047      -965.291               
     3 r.7                   1145.53             0               
     4 r.8                  -960.162      -979.179               
     5 r.9                   1145.53             0               
     6 r.10                  -958.16      -960.403               
     7 r.11                  145.534             0               
     8 r.12                  92.8474      -975.987               
     9 r.13                  145.534             0               
    10 r.14                  92.8474      -940.399               
    11 r.15                  1145.53             0               
    12 r.16                 -907.153      -965.999               
    13 r.17                  145.534             0               
    14 r.18                 -966.613      -968.856               
    15 r.19                  1145.53             0               
    16 r.20                 -941.154      -980.992               
    17 r.21                  145.534             0               
    18 r.22                  61.7242      -971.355               
    19 r.23                  1145.53             0               
    20 r.24                 -980.983      -983.226               
    21 r.25                  145.534             0               
    22 r.26                   2.2432      -997.748               
    23 r.27                  1145.53             0               
    24 r.28                 -997.757      -997.757               
    25 r.29                  1145.53             0               
    26 r.30                 -854.466       -916.19               
    27 r.31                  145.534             0               
    28 r.32                  145.534      -947.589               
    29 r.33                  145.534             0               
    30 r.34                  145.534      -916.705               
    31 r.35                  1145.53             0               
    32 r.36                 -854.466      -947.313               
    33 r.37                        1             1             = 
    34 r.38                        1             1             = 
    35 r.39                        1             1             = 
    36 r.40                        1             1             = 
    37 r.41                        1             1             = 
    38 r.42                        1             1             = 
    39 r.43                        1             1             = 
    40 r.44                        1             1             = 
    41 r.45                     1001             2               
    42 r.46                    -1001         -1001               
    43 r.47                  3004.89      -960.403               
    44 r.48                     1001             2               
    45 r.49                    -1001         -1001               
    46 r.50                  2053.01      -975.987               
    47 r.51                     1000             2               
    48 r.52                    -1000         -1001               
    49 r.53                  3055.89      -940.399               
    50 r.54                        2             2               
    51 r.55                       -2         -1001               
    52 r.56                 -946.991      -965.999               
    53 r.57                     1000             2               
    54 r.58                    -1000         -1001               
    55 r.59                  1996.43      -968.856               
    56 r.60                        2             2               
    57 r.61                       -2         -1001               
    58 r.62                 -980.992      -980.992               
    59 r.63                     1000             2               
    60 r.64                    -1000         -1001               
    61 r.65                  3024.77      -971.355               
    62 r.66                        2             2               
    63 r.67                       -2         -1001               
    64 r.68                  -20.821      -983.226               
    65 r.69                 -965.291      -965.291               
    66 r.70                 -962.405      -979.179               
    67 r.71                 -965.291      -965.291               
    68 r.72                 -962.405      -979.179               
    69 r.73                  108.581       -916.19               
    70 r.74                  1108.58      -947.589               
    71 r.75                 -894.304       -916.19               
    72 r.76                  105.696      -947.589               
    73 r.77                     1000             2               
    74 r.78                    -1000         -1001               
    75 r.79                  3108.58      -916.705               
    76 r.80                        2             2               
    77 r.81                       -2         -1001               
    78 r.82                 -894.304      -947.313               
    79 r.83                     1001             2               
    80 r.84                    -1001         -1001               
    81 r.85                  995.113       34.7094               
    82 r.86                     1001             2               
    83 r.87                    -1001         -1001               
    84 r.88                  1946.99        20.821               
    85 r.89                     1001             2               
    86 r.90                    -1001         -1001               
    87 r.91                  2051.01      -940.399               
    88 r.92                     1001             2               
    89 r.93                    -1001         -1001               
    90 r.94                     2000      -965.999               
    91 r.95                     1001             2               
    92 r.96                    -1001         -1001               
    93 r.97                  991.547      -968.856               
    94 r.98                     1001             2               
    95 r.99                    -1001         -1001               
    96 r.100                    1966      -980.992               
    97 r.101                    1001             2               
    98 r.102                   -1001         -1001               
    99 r.103                 2019.88      -971.355               
   100 r.104                    1001             2               
   101 r.105                   -1001         -1001               
   102 r.106                 1926.17      -983.226               
   103 r.107                -960.403      -960.403               
   104 r.108                 90.6042      -975.987               
   105 r.109                -960.403      -960.403               
   106 r.110                 90.6042      -975.987               
   107 r.111                       2             2               
   108 r.112                      -2         -1001               
   109 r.113                -896.306       -916.19               
   110 r.114                    1000             2               
   111 r.115                   -1000         -1001               
   112 r.116                 2052.69      -947.589               
   113 r.117                 103.694      -916.705               
   114 r.118                -896.306      -947.313               
   115 r.119                 52.6866      -916.705               
   116 r.120                -947.313      -947.313               
   117 r.121                    1000             2               
   118 r.122                   -1000         -1001               
   119 r.123                 944.105       34.7094               
   120 r.124                       2             2               
   121 r.125                      -2         -1001               
   122 r.126                 946.991        20.821               
   123 r.127                    1001             2               
   124 r.128                   -1001         -1001               
   125 r.129                 1948.99       39.5968               
   126 r.130                    1001             2               
   127 r.131                   -1001         -1001               
   128 r.132                    2000       24.0126               
   129 r.133                 1059.46      -940.399               
   130 r.134                 59.4605      -965.999               
   131 r.135                 34.0009      -940.399               
   132 r.136                -965.999      -965.999               
   133 r.137                    1000             2               
   134 r.138                   -1000         -1001               
   135 r.139                 1968.88      -971.355               
   136 r.140                       2             2               
   137 r.141                      -2         -1001               
   138 r.142                -73.8301      -983.226               
   139 r.143                 90.6042      -940.399               
   140 r.144                -909.396      -965.999               
   141 r.145                 90.6042      -940.399               
   142 r.146                -909.396      -965.999               
   143 r.147                    1001             2               
   144 r.148                   -1001         -1001               
   145 r.149                 2052.69       -916.19               
   146 r.150                    1001             2               
   147 r.151                   -1001         -1001               
   148 r.152                 2052.69      -947.589               
   149 r.153                 52.6866      -916.705               
   150 r.154                -947.313      -947.313               
   151 r.155                 52.6866      -916.705               
   152 r.156                -947.313      -947.313               
   153 r.157                    1000             2               
   154 r.158                   -1000         -1001               
   155 r.159                 2003.57       34.7094               
   156 r.160                       2             2               
   157 r.161                      -2         -1001               
   158 r.162                 980.992        20.821               
   159 r.163                    1001             2               
   160 r.164                   -1001         -1001               
   161 r.165                 3008.45       39.5968               
   162 r.166                    1001             2               
   163 r.167                   -1001         -1001               
   164 r.168                    2034       24.0126               
   165 r.169                    1000             2               
   166 r.170                   -1000         -1001               
   167 r.171                 3028.34      -971.355               
   168 r.172                       2             2               
   169 r.173                      -2         -1001               
   170 r.174                -39.8292      -983.226               
   171 r.175                -968.856      -968.856               
   172 r.176                -943.397      -980.992               
   173 r.177                -968.856      -968.856               
   174 r.178                -943.397      -980.992               
   175 r.179                    1001             2               
   176 r.180                   -1001         -1001               
   177 r.181                 3112.15       -916.19               
   178 r.182                    1001             2               
   179 r.183                   -1001         -1001               
   180 r.184                 2086.69      -947.589               
   181 r.185                 1112.15      -916.705               
   182 r.186                 112.147      -947.313               
   183 r.187                 86.6875      -916.705               
   184 r.188                -913.312      -947.313               
   185 r.189                    1000             2               
   186 r.190                   -1000         -1001               
   187 r.191                 975.228       34.7094               
   188 r.192                       2             2               
   189 r.193                      -2         -1001               
   190 r.194                  20.821        20.821               
   191 r.195                    1001             2               
   192 r.196                   -1001         -1001               
   193 r.197                 1980.12       39.5968               
   194 r.198                    1001             2               
   195 r.199                   -1001         -1001               
   196 r.200                 2073.83       24.0126               
   197 r.201                    1000             2               
   198 r.202                   -1000         -1001               
   199 r.203                 2031.12       59.6012               
   200 r.204                       2             2               
   201 r.205                      -2         -1001               
   202 r.206                 73.8301       34.0009               
   203 r.207                    1000             2               
   204 r.208                   -1000         -1001               
   205 r.209                 971.663       31.1437               
   206 r.210                       2             2               
   207 r.211                      -2         -1001               
   208 r.212                 39.8292       19.0082               
   209 r.213                  59.481      -971.355               
   210 r.214                -983.226      -983.226               
   211 r.215                  59.481      -971.355               
   212 r.216                -983.226      -983.226               
   213 r.217                 -916.19       -916.19               
   214 r.218                 83.8098      -947.589               
   215 r.219                -873.483       -916.19               
   216 r.220                 126.517      -947.589               
   217 r.221                 83.8098      -916.705               
   218 r.222                 -916.19      -947.313               
   219 r.223                 126.517      -916.705               
   220 r.224                -873.483      -947.313               
   221 r.225                       2             2               
   222 r.226                      -2         -1001               
   223 r.227                 896.306       39.5968               
   224 r.228                    1000             2               
   225 r.229                   -1000         -1001               
   226 r.230                 1947.31       24.0126               
   227 r.231                    1001             2               
   228 r.232                   -1001         -1001               
   229 r.233                 1947.31       59.6012               
   230 r.234                    1001             2               
   231 r.235                   -1001         -1001               
   232 r.236                 1947.31       34.0009               
   233 r.237                    1001             2               
   234 r.238                   -1001         -1001               
   235 r.239                 887.853       31.1437               
   236 r.240                    1001             2               
   237 r.241                   -1001         -1001               
   238 r.242                 1913.31       19.0082               
   239 r.243                    1001             2               
   240 r.244                   -1001         -1001               
   241 r.245                    2000      -916.705               
   242 r.246                    1001             2               
   243 r.247                   -1001         -1001               
   244 r.248                    2000      -947.313               
   245 r.249                    1000             2               
   246 r.250                   -1000         -1001               
   247 r.251                 891.419       34.7094               
   248 r.252                       2             2               
   249 r.253                      -2         -1001               
   250 r.254                 894.304        20.821               
   251 r.255                    1001             2               
   252 r.256                   -1001         -1001               
   253 r.257                    2000       83.8098               
   254 r.258                    1001             2               
   255 r.259                   -1001         -1001               
   256 r.260                    2000       52.4108               

   No. Column name       Activity     Lower bound   Upper bound
------ ------------    ------------- ------------- -------------
     1 tt                    145.534             0               
     2 s_1_1        *              0             0             1 
     3 t_1_1                 1108.58             0               
     4 s_1_7        *              1             0             1 
     5 s_2_1        *              1             0             1 
     6 t_2_1                 105.696             0               
     7 s_2_7        *              0             0             1 
     8 s_1_2        *              1             0             1 
     9 t_1_2                 103.694             0               
    10 s_1_8        *              0             0             1 
    11 s_2_2        *              0             0             1 
    12 t_2_2                 52.6866             0               
    13 s_2_8        *              1             0             1 
    14 s_1_3        *              0             0             1 
    15 t_1_3                 52.6866             0               
    16 s_2_3        *              1             0             1 
    17 t_2_3                 52.6866             0               
    18 s_1_4        *              0             0             1 
    19 t_1_4                 1112.15             0               
    20 s_2_4        *              1             0             1 
    21 t_2_4                 86.6875             0               
    22 s_1_5        *              0             0             1 
    23 t_1_5                 83.8098             0               
    24 s_2_5        *              1             0             1 
    25 t_2_5                 126.517             0               
    26 s_1_6        *              0             0             1 
    27 t_1_6                 143.291             0               
    28 s_2_6        *              1             0             1 
    29 t_2_6                 143.291             0               
    30 t_1_7                       0             0               
    31 t_2_7                       0             0               
    32 t_1_8                       0             0               
    33 t_2_8                       0             0               
    34 r_1_1_2      *              1             0             1 
    35 u_1_1_2      *              0             0             1 
    36 r_2_1_2      *              1             0             1 
    37 u_2_1_2      *              0             0             1 
    38 r_1_1_3      *              1             0             1 
    39 u_1_1_3      *              0             0             1 
    40 r_2_1_3      *              0             0             1 
    41 u_2_1_3      *              1             0             1 
    42 r_1_1_4      *              1             0             1 
    43 u_1_1_4      *              0             0             1 
    44 r_2_1_4      *              0             0             1 
    45 u_2_1_4      *              1             0             1 
    46 r_1_1_5      *              1             0             1 
    47 u_1_1_5      *              0             0             1 
    48 r_2_1_5      *              0             0             1 
    49 u_2_1_5      *              0             0             1 
    50 r_1_1_8      *              1             0             1 
    51 u_1_1_8      *              0             0             1 
    52 r_2_1_8      *              0             0             1 
    53 u_2_1_8      *              1             0             1 
    54 r_1_2_3      *              1             0             1 
    55 u_1_2_3      *              0             0             1 
    56 r_2_2_3      *              1             0             1 
    57 u_2_2_3      *              0             0             1 
    58 r_1_2_4      *              1             0             1 
    59 u_1_2_4      *              0             0             1 
    60 r_2_2_4      *              1             0             1 
    61 u_2_2_4      *              0             0             1 
    62 r_1_2_5      *              1             0             1 
    63 u_1_2_5      *              0             0             1 
    64 r_2_2_5      *              1             0             1 
    65 u_2_2_5      *              0             0             1 
    66 r_1_2_7      *              0             0             1 
    67 u_1_2_7      *              1             0             1 
    68 r_2_2_7      *              1             0             1 
    69 u_2_2_7      *              0             0             1 
    70 r_1_3_5      *              1             0             1 
    71 u_1_3_5      *              0             0             1 
    72 r_2_3_5      *              0             0             1 
    73 u_2_3_5      *              0             0             1 
    74 r_1_3_7      *              1             0             1 
    75 u_1_3_7      *              0             0             1 
    76 r_2_3_7      *              1             0             1 
    77 u_2_3_7      *              0             0             1 
    78 r_1_4_5      *              1             0             1 
    79 u_1_4_5      *              0             0             1 
    80 r_2_4_5      *              0             0             1 
    81 u_2_4_5      *              0             0             1 
    82 r_1_4_7      *              1             0             1 
    83 u_1_4_7      *              0             0             1 
    84 r_2_4_7      *              1             0             1 
    85 u_2_4_7      *              0             0             1 
    86 r_1_7_8      *              1             0             1 
    87 u_1_7_8      *              0             0             1 
    88 r_2_7_8      *              1             0             1 
    89 u_2_7_8      *              0             0             1 

Integer feasibility conditions:

KKT.PE: max.abs.err = 4.55e-13 on row 161
        max.rel.err = 7.30e-17 on row 161
        High quality

KKT.PB: max.abs.err = 0.00e+00 on row 0
        max.rel.err = 0.00e+00 on row 0
        High quality

End of output
